p cnf 431 1461
c p weight -171 1 0
c p weight 171 -1 0
c p weight 175 6.12323399573676603586882014729198302312846062338790031898128063403419218957424163818359375E-17 0
c p weight -175 1 0
c p weight 176 1 0
c p weight -176 1 0
c p weight -173 1 0
c p weight 173 -1 0
c p weight -177 1 0
c p weight 177 -1 0
c p weight -179 1 0
c p weight 179 -1 0
c p weight -182 1 0
c p weight 182 -1 0
c p weight -185 1 0
c p weight 185 -1 0
c p weight -188 1 0
c p weight 188 -1 0
c p weight -191 1 0
c p weight 191 -1 0
c p weight -194 1 0
c p weight 194 -1 0
c p weight -197 1 0
c p weight 197 -1 0
c p weight -200 1 0
c p weight 200 -1 0
c p weight -203 1 0
c p weight 203 -1 0
c p weight -206 1 0
c p weight 206 -1 0
c p weight -209 1 0
c p weight 209 -1 0
c p weight -212 1 0
c p weight 212 -1 0
c p weight -215 1 0
c p weight 215 -1 0
c p weight -218 1 0
c p weight 218 -1 0
c p weight -221 1 0
c p weight 221 -1 0
c p weight -224 1 0
c p weight 224 -1 0
c p weight -227 1 0
c p weight 227 -1 0
c p weight -230 1 0
c p weight 230 -1 0
c p weight -233 1 0
c p weight 233 -1 0
c p weight -236 1 0
c p weight 236 -1 0
c p weight -239 1 0
c p weight 239 -1 0
c p weight -242 1 0
c p weight 242 -1 0
c p weight -245 1 0
c p weight 245 -1 0
c p weight -248 1 0
c p weight 248 -1 0
c p weight -251 1 0
c p weight 251 -1 0
c p weight -254 1 0
c p weight 254 -1 0
c p weight -257 1 0
c p weight 257 -1 0
c p weight -260 1 0
c p weight 260 -1 0
c p weight -263 1 0
c p weight 263 -1 0
c p weight -266 1 0
c p weight 266 -1 0
c p weight -269 1 0
c p weight 269 -1 0
c p weight -272 1 0
c p weight 272 -1 0
c p weight -275 1 0
c p weight 275 -1 0
c p weight -278 1 0
c p weight 278 -1 0
c p weight -281 1 0
c p weight 281 -1 0
c p weight -284 1 0
c p weight 284 -1 0
c p weight -287 1 0
c p weight 287 -1 0
c p weight -290 1 0
c p weight 290 -1 0
c p weight -293 1 0
c p weight 293 -1 0
c p weight -296 1 0
c p weight 296 -1 0
c p weight -299 1 0
c p weight 299 -1 0
c p weight -302 1 0
c p weight 302 -1 0
c p weight -305 1 0
c p weight 305 -1 0
c p weight -308 1 0
c p weight 308 -1 0
c p weight -311 1 0
c p weight 311 -1 0
c p weight -314 1 0
c p weight 314 -1 0
c p weight -317 1 0
c p weight 317 -1 0
c p weight -320 1 0
c p weight 320 -1 0
c p weight -323 1 0
c p weight 323 -1 0
c p weight -326 1 0
c p weight 326 -1 0
c p weight -329 1 0
c p weight 329 -1 0
c p weight -332 1 0
c p weight 332 -1 0
c p weight -335 1 0
c p weight 335 -1 0
c p weight -338 1 0
c p weight 338 -1 0
c p weight -341 1 0
c p weight 341 -1 0
c p weight -344 1 0
c p weight 344 -1 0
c p weight -347 1 0
c p weight 347 -1 0
c p weight -350 1 0
c p weight 350 -1 0
c p weight -353 1 0
c p weight 353 -1 0
c p weight -356 1 0
c p weight 356 -1 0
c p weight -359 1 0
c p weight 359 -1 0
c p weight -362 1 0
c p weight 362 -1 0
c p weight -365 1 0
c p weight 365 -1 0
c p weight -368 1 0
c p weight 368 -1 0
c p weight -371 1 0
c p weight 371 -1 0
c p weight -374 1 0
c p weight 374 -1 0
c p weight -377 1 0
c p weight 377 -1 0
c p weight -380 1 0
c p weight 380 -1 0
c p weight -383 1 0
c p weight 383 -1 0
c p weight -386 1 0
c p weight 386 -1 0
c p weight -389 1 0
c p weight 389 -1 0
c p weight -392 1 0
c p weight 392 -1 0
c p weight -395 1 0
c p weight 395 -1 0
c p weight -398 1 0
c p weight 398 -1 0
c p weight -401 1 0
c p weight 401 -1 0
c p weight -404 1 0
c p weight 404 -1 0
c p weight -407 1 0
c p weight 407 -1 0
c p weight -410 1 0
c p weight 410 -1 0
c p weight -413 1 0
c p weight 413 -1 0
c p weight -416 1 0
c p weight 416 -1 0
c p weight -419 1 0
c p weight 419 -1 0
c p weight -422 1 0
c p weight 422 -1 0
c p weight -425 1 0
c p weight 425 -1 0
c p weight -428 1 0
c p weight 428 -1 0
c p weight 431 0.5 0
c p weight -431 1 0
431 0
-169 0
-167 0
-165 0
-163 0
-161 0
-159 0
-157 0
-155 0
-153 0
-151 0
-149 0
-147 0
-145 0
-143 0
-141 0
-139 0
-137 0
-135 0
-133 0
-131 0
-129 0
-127 0
-125 0
-123 0
-121 0
-119 0
-117 0
-115 0
-113 0
-111 0
-109 0
-107 0
-105 0
-103 0
-101 0
-99 0
-97 0
-95 0
-93 0
-91 0
-89 0
-87 0
-85 0
-83 0
-81 0
-79 0
-77 0
-75 0
-73 0
-71 0
-69 0
-67 0
-65 0
-63 0
-61 0
-59 0
-57 0
-55 0
-53 0
-51 0
-49 0
-47 0
-45 0
-43 0
-41 0
-39 0
-37 0
-35 0
-33 0
-31 0
-29 0
-27 0
-25 0
-23 0
-21 0
-19 0
-17 0
-15 0
-13 0
-11 0
-9 0
-7 0
-5 0
-3 0
-1 0
-171 169 0
-171 170 0
171 -169 -170 0
172 169 -170 0
172 -169 170 0
-172 169 170 0
-172 -169 -170 0
-173 174 0
-173 172 0
-173 -169 0
173 -174 169 -172 0
174 -169 172 0
-174 169 172 0
-175 172 0
174 -175 -169 0
-174 -175 169 0
174 175 169 -172 0
-174 175 -169 -172 0
-176 172 0
174 -176 169 0
-174 -176 -169 0
174 176 -169 -172 0
-174 176 169 -172 0
-177 174 0
-177 172 0
177 -174 -172 0
178 174 -172 0
178 -174 172 0
-178 174 172 0
-178 -174 -172 0
-179 174 0
-179 168 0
-179 167 -178 0
-179 -167 178 0
179 -174 167 178 -168 0
179 -174 -167 -178 -168 0
181 174 -167 0
181 -174 167 0
-181 174 167 0
-181 -174 -167 0
180 178 -168 0
180 -178 168 0
-180 178 168 0
-180 -178 -168 0
-182 181 0
-182 166 0
-182 165 -168 0
-182 -165 168 0
182 -181 165 168 -166 0
182 -181 -165 -168 -166 0
184 181 -165 0
184 -181 165 0
-184 181 165 0
-184 -181 -165 0
183 168 -166 0
183 -168 166 0
-183 168 166 0
-183 -168 -166 0
-185 184 0
-185 164 0
-185 163 -166 0
-185 -163 166 0
185 -184 163 166 -164 0
185 -184 -163 -166 -164 0
187 184 -163 0
187 -184 163 0
-187 184 163 0
-187 -184 -163 0
186 166 -164 0
186 -166 164 0
-186 166 164 0
-186 -166 -164 0
-188 187 0
-188 162 0
-188 161 -164 0
-188 -161 164 0
188 -187 161 164 -162 0
188 -187 -161 -164 -162 0
190 187 -161 0
190 -187 161 0
-190 187 161 0
-190 -187 -161 0
189 164 -162 0
189 -164 162 0
-189 164 162 0
-189 -164 -162 0
-191 190 0
-191 160 0
-191 159 -162 0
-191 -159 162 0
191 -190 159 162 -160 0
191 -190 -159 -162 -160 0
193 190 -159 0
193 -190 159 0
-193 190 159 0
-193 -190 -159 0
192 162 -160 0
192 -162 160 0
-192 162 160 0
-192 -162 -160 0
-194 193 0
-194 158 0
-194 157 -160 0
-194 -157 160 0
194 -193 157 160 -158 0
194 -193 -157 -160 -158 0
196 193 -157 0
196 -193 157 0
-196 193 157 0
-196 -193 -157 0
195 160 -158 0
195 -160 158 0
-195 160 158 0
-195 -160 -158 0
-197 196 0
-197 156 0
-197 155 -158 0
-197 -155 158 0
197 -196 155 158 -156 0
197 -196 -155 -158 -156 0
199 196 -155 0
199 -196 155 0
-199 196 155 0
-199 -196 -155 0
198 158 -156 0
198 -158 156 0
-198 158 156 0
-198 -158 -156 0
-200 199 0
-200 154 0
-200 153 -156 0
-200 -153 156 0
200 -199 153 156 -154 0
200 -199 -153 -156 -154 0
202 199 -153 0
202 -199 153 0
-202 199 153 0
-202 -199 -153 0
201 156 -154 0
201 -156 154 0
-201 156 154 0
-201 -156 -154 0
-203 202 0
-203 152 0
-203 151 -154 0
-203 -151 154 0
203 -202 151 154 -152 0
203 -202 -151 -154 -152 0
205 202 -151 0
205 -202 151 0
-205 202 151 0
-205 -202 -151 0
204 154 -152 0
204 -154 152 0
-204 154 152 0
-204 -154 -152 0
-206 205 0
-206 150 0
-206 149 -152 0
-206 -149 152 0
206 -205 149 152 -150 0
206 -205 -149 -152 -150 0
208 205 -149 0
208 -205 149 0
-208 205 149 0
-208 -205 -149 0
207 152 -150 0
207 -152 150 0
-207 152 150 0
-207 -152 -150 0
-209 208 0
-209 148 0
-209 147 -150 0
-209 -147 150 0
209 -208 147 150 -148 0
209 -208 -147 -150 -148 0
211 208 -147 0
211 -208 147 0
-211 208 147 0
-211 -208 -147 0
210 150 -148 0
210 -150 148 0
-210 150 148 0
-210 -150 -148 0
-212 211 0
-212 146 0
-212 145 -148 0
-212 -145 148 0
212 -211 145 148 -146 0
212 -211 -145 -148 -146 0
214 211 -145 0
214 -211 145 0
-214 211 145 0
-214 -211 -145 0
213 148 -146 0
213 -148 146 0
-213 148 146 0
-213 -148 -146 0
-215 214 0
-215 144 0
-215 143 -146 0
-215 -143 146 0
215 -214 143 146 -144 0
215 -214 -143 -146 -144 0
217 214 -143 0
217 -214 143 0
-217 214 143 0
-217 -214 -143 0
216 146 -144 0
216 -146 144 0
-216 146 144 0
-216 -146 -144 0
-218 217 0
-218 142 0
-218 141 -144 0
-218 -141 144 0
218 -217 141 144 -142 0
218 -217 -141 -144 -142 0
220 217 -141 0
220 -217 141 0
-220 217 141 0
-220 -217 -141 0
219 144 -142 0
219 -144 142 0
-219 144 142 0
-219 -144 -142 0
-221 220 0
-221 140 0
-221 139 -142 0
-221 -139 142 0
221 -220 139 142 -140 0
221 -220 -139 -142 -140 0
223 220 -139 0
223 -220 139 0
-223 220 139 0
-223 -220 -139 0
222 142 -140 0
222 -142 140 0
-222 142 140 0
-222 -142 -140 0
-224 223 0
-224 138 0
-224 137 -140 0
-224 -137 140 0
224 -223 137 140 -138 0
224 -223 -137 -140 -138 0
226 223 -137 0
226 -223 137 0
-226 223 137 0
-226 -223 -137 0
225 140 -138 0
225 -140 138 0
-225 140 138 0
-225 -140 -138 0
-227 226 0
-227 136 0
-227 135 -138 0
-227 -135 138 0
227 -226 135 138 -136 0
227 -226 -135 -138 -136 0
229 226 -135 0
229 -226 135 0
-229 226 135 0
-229 -226 -135 0
228 138 -136 0
228 -138 136 0
-228 138 136 0
-228 -138 -136 0
-230 229 0
-230 134 0
-230 133 -136 0
-230 -133 136 0
230 -229 133 136 -134 0
230 -229 -133 -136 -134 0
232 229 -133 0
232 -229 133 0
-232 229 133 0
-232 -229 -133 0
231 136 -134 0
231 -136 134 0
-231 136 134 0
-231 -136 -134 0
-233 232 0
-233 132 0
-233 131 -134 0
-233 -131 134 0
233 -232 131 134 -132 0
233 -232 -131 -134 -132 0
235 232 -131 0
235 -232 131 0
-235 232 131 0
-235 -232 -131 0
234 134 -132 0
234 -134 132 0
-234 134 132 0
-234 -134 -132 0
-236 235 0
-236 130 0
-236 129 -132 0
-236 -129 132 0
236 -235 129 132 -130 0
236 -235 -129 -132 -130 0
238 235 -129 0
238 -235 129 0
-238 235 129 0
-238 -235 -129 0
237 132 -130 0
237 -132 130 0
-237 132 130 0
-237 -132 -130 0
-239 238 0
-239 128 0
-239 127 -130 0
-239 -127 130 0
239 -238 127 130 -128 0
239 -238 -127 -130 -128 0
241 238 -127 0
241 -238 127 0
-241 238 127 0
-241 -238 -127 0
240 130 -128 0
240 -130 128 0
-240 130 128 0
-240 -130 -128 0
-242 241 0
-242 126 0
-242 125 -128 0
-242 -125 128 0
242 -241 125 128 -126 0
242 -241 -125 -128 -126 0
244 241 -125 0
244 -241 125 0
-244 241 125 0
-244 -241 -125 0
243 128 -126 0
243 -128 126 0
-243 128 126 0
-243 -128 -126 0
-245 244 0
-245 124 0
-245 123 -126 0
-245 -123 126 0
245 -244 123 126 -124 0
245 -244 -123 -126 -124 0
247 244 -123 0
247 -244 123 0
-247 244 123 0
-247 -244 -123 0
246 126 -124 0
246 -126 124 0
-246 126 124 0
-246 -126 -124 0
-248 247 0
-248 122 0
-248 121 -124 0
-248 -121 124 0
248 -247 121 124 -122 0
248 -247 -121 -124 -122 0
250 247 -121 0
250 -247 121 0
-250 247 121 0
-250 -247 -121 0
249 124 -122 0
249 -124 122 0
-249 124 122 0
-249 -124 -122 0
-251 250 0
-251 120 0
-251 119 -122 0
-251 -119 122 0
251 -250 119 122 -120 0
251 -250 -119 -122 -120 0
253 250 -119 0
253 -250 119 0
-253 250 119 0
-253 -250 -119 0
252 122 -120 0
252 -122 120 0
-252 122 120 0
-252 -122 -120 0
-254 253 0
-254 118 0
-254 117 -120 0
-254 -117 120 0
254 -253 117 120 -118 0
254 -253 -117 -120 -118 0
256 253 -117 0
256 -253 117 0
-256 253 117 0
-256 -253 -117 0
255 120 -118 0
255 -120 118 0
-255 120 118 0
-255 -120 -118 0
-257 256 0
-257 116 0
-257 115 -118 0
-257 -115 118 0
257 -256 115 118 -116 0
257 -256 -115 -118 -116 0
259 256 -115 0
259 -256 115 0
-259 256 115 0
-259 -256 -115 0
258 118 -116 0
258 -118 116 0
-258 118 116 0
-258 -118 -116 0
-260 259 0
-260 114 0
-260 113 -116 0
-260 -113 116 0
260 -259 113 116 -114 0
260 -259 -113 -116 -114 0
262 259 -113 0
262 -259 113 0
-262 259 113 0
-262 -259 -113 0
261 116 -114 0
261 -116 114 0
-261 116 114 0
-261 -116 -114 0
-263 262 0
-263 112 0
-263 111 -114 0
-263 -111 114 0
263 -262 111 114 -112 0
263 -262 -111 -114 -112 0
265 262 -111 0
265 -262 111 0
-265 262 111 0
-265 -262 -111 0
264 114 -112 0
264 -114 112 0
-264 114 112 0
-264 -114 -112 0
-266 265 0
-266 110 0
-266 109 -112 0
-266 -109 112 0
266 -265 109 112 -110 0
266 -265 -109 -112 -110 0
268 265 -109 0
268 -265 109 0
-268 265 109 0
-268 -265 -109 0
267 112 -110 0
267 -112 110 0
-267 112 110 0
-267 -112 -110 0
-269 268 0
-269 108 0
-269 107 -110 0
-269 -107 110 0
269 -268 107 110 -108 0
269 -268 -107 -110 -108 0
271 268 -107 0
271 -268 107 0
-271 268 107 0
-271 -268 -107 0
270 110 -108 0
270 -110 108 0
-270 110 108 0
-270 -110 -108 0
-272 271 0
-272 106 0
-272 105 -108 0
-272 -105 108 0
272 -271 105 108 -106 0
272 -271 -105 -108 -106 0
274 271 -105 0
274 -271 105 0
-274 271 105 0
-274 -271 -105 0
273 108 -106 0
273 -108 106 0
-273 108 106 0
-273 -108 -106 0
-275 274 0
-275 104 0
-275 103 -106 0
-275 -103 106 0
275 -274 103 106 -104 0
275 -274 -103 -106 -104 0
277 274 -103 0
277 -274 103 0
-277 274 103 0
-277 -274 -103 0
276 106 -104 0
276 -106 104 0
-276 106 104 0
-276 -106 -104 0
-278 277 0
-278 102 0
-278 101 -104 0
-278 -101 104 0
278 -277 101 104 -102 0
278 -277 -101 -104 -102 0
280 277 -101 0
280 -277 101 0
-280 277 101 0
-280 -277 -101 0
279 104 -102 0
279 -104 102 0
-279 104 102 0
-279 -104 -102 0
-281 280 0
-281 100 0
-281 99 -102 0
-281 -99 102 0
281 -280 99 102 -100 0
281 -280 -99 -102 -100 0
283 280 -99 0
283 -280 99 0
-283 280 99 0
-283 -280 -99 0
282 102 -100 0
282 -102 100 0
-282 102 100 0
-282 -102 -100 0
-284 283 0
-284 98 0
-284 97 -100 0
-284 -97 100 0
284 -283 97 100 -98 0
284 -283 -97 -100 -98 0
286 283 -97 0
286 -283 97 0
-286 283 97 0
-286 -283 -97 0
285 100 -98 0
285 -100 98 0
-285 100 98 0
-285 -100 -98 0
-287 286 0
-287 96 0
-287 95 -98 0
-287 -95 98 0
287 -286 95 98 -96 0
287 -286 -95 -98 -96 0
289 286 -95 0
289 -286 95 0
-289 286 95 0
-289 -286 -95 0
288 98 -96 0
288 -98 96 0
-288 98 96 0
-288 -98 -96 0
-290 289 0
-290 94 0
-290 93 -96 0
-290 -93 96 0
290 -289 93 96 -94 0
290 -289 -93 -96 -94 0
292 289 -93 0
292 -289 93 0
-292 289 93 0
-292 -289 -93 0
291 96 -94 0
291 -96 94 0
-291 96 94 0
-291 -96 -94 0
-293 292 0
-293 92 0
-293 91 -94 0
-293 -91 94 0
293 -292 91 94 -92 0
293 -292 -91 -94 -92 0
295 292 -91 0
295 -292 91 0
-295 292 91 0
-295 -292 -91 0
294 94 -92 0
294 -94 92 0
-294 94 92 0
-294 -94 -92 0
-296 295 0
-296 90 0
-296 89 -92 0
-296 -89 92 0
296 -295 89 92 -90 0
296 -295 -89 -92 -90 0
298 295 -89 0
298 -295 89 0
-298 295 89 0
-298 -295 -89 0
297 92 -90 0
297 -92 90 0
-297 92 90 0
-297 -92 -90 0
-299 298 0
-299 88 0
-299 87 -90 0
-299 -87 90 0
299 -298 87 90 -88 0
299 -298 -87 -90 -88 0
301 298 -87 0
301 -298 87 0
-301 298 87 0
-301 -298 -87 0
300 90 -88 0
300 -90 88 0
-300 90 88 0
-300 -90 -88 0
-302 301 0
-302 86 0
-302 85 -88 0
-302 -85 88 0
302 -301 85 88 -86 0
302 -301 -85 -88 -86 0
304 301 -85 0
304 -301 85 0
-304 301 85 0
-304 -301 -85 0
303 88 -86 0
303 -88 86 0
-303 88 86 0
-303 -88 -86 0
-305 304 0
-305 84 0
-305 83 -86 0
-305 -83 86 0
305 -304 83 86 -84 0
305 -304 -83 -86 -84 0
307 304 -83 0
307 -304 83 0
-307 304 83 0
-307 -304 -83 0
306 86 -84 0
306 -86 84 0
-306 86 84 0
-306 -86 -84 0
-308 307 0
-308 82 0
-308 81 -84 0
-308 -81 84 0
308 -307 81 84 -82 0
308 -307 -81 -84 -82 0
310 307 -81 0
310 -307 81 0
-310 307 81 0
-310 -307 -81 0
309 84 -82 0
309 -84 82 0
-309 84 82 0
-309 -84 -82 0
-311 310 0
-311 80 0
-311 79 -82 0
-311 -79 82 0
311 -310 79 82 -80 0
311 -310 -79 -82 -80 0
313 310 -79 0
313 -310 79 0
-313 310 79 0
-313 -310 -79 0
312 82 -80 0
312 -82 80 0
-312 82 80 0
-312 -82 -80 0
-314 313 0
-314 78 0
-314 77 -80 0
-314 -77 80 0
314 -313 77 80 -78 0
314 -313 -77 -80 -78 0
316 313 -77 0
316 -313 77 0
-316 313 77 0
-316 -313 -77 0
315 80 -78 0
315 -80 78 0
-315 80 78 0
-315 -80 -78 0
-317 316 0
-317 76 0
-317 75 -78 0
-317 -75 78 0
317 -316 75 78 -76 0
317 -316 -75 -78 -76 0
319 316 -75 0
319 -316 75 0
-319 316 75 0
-319 -316 -75 0
318 78 -76 0
318 -78 76 0
-318 78 76 0
-318 -78 -76 0
-320 319 0
-320 74 0
-320 73 -76 0
-320 -73 76 0
320 -319 73 76 -74 0
320 -319 -73 -76 -74 0
322 319 -73 0
322 -319 73 0
-322 319 73 0
-322 -319 -73 0
321 76 -74 0
321 -76 74 0
-321 76 74 0
-321 -76 -74 0
-323 322 0
-323 72 0
-323 71 -74 0
-323 -71 74 0
323 -322 71 74 -72 0
323 -322 -71 -74 -72 0
325 322 -71 0
325 -322 71 0
-325 322 71 0
-325 -322 -71 0
324 74 -72 0
324 -74 72 0
-324 74 72 0
-324 -74 -72 0
-326 325 0
-326 70 0
-326 69 -72 0
-326 -69 72 0
326 -325 69 72 -70 0
326 -325 -69 -72 -70 0
328 325 -69 0
328 -325 69 0
-328 325 69 0
-328 -325 -69 0
327 72 -70 0
327 -72 70 0
-327 72 70 0
-327 -72 -70 0
-329 328 0
-329 68 0
-329 67 -70 0
-329 -67 70 0
329 -328 67 70 -68 0
329 -328 -67 -70 -68 0
331 328 -67 0
331 -328 67 0
-331 328 67 0
-331 -328 -67 0
330 70 -68 0
330 -70 68 0
-330 70 68 0
-330 -70 -68 0
-332 331 0
-332 66 0
-332 65 -68 0
-332 -65 68 0
332 -331 65 68 -66 0
332 -331 -65 -68 -66 0
334 331 -65 0
334 -331 65 0
-334 331 65 0
-334 -331 -65 0
333 68 -66 0
333 -68 66 0
-333 68 66 0
-333 -68 -66 0
-335 334 0
-335 64 0
-335 63 -66 0
-335 -63 66 0
335 -334 63 66 -64 0
335 -334 -63 -66 -64 0
337 334 -63 0
337 -334 63 0
-337 334 63 0
-337 -334 -63 0
336 66 -64 0
336 -66 64 0
-336 66 64 0
-336 -66 -64 0
-338 337 0
-338 62 0
-338 61 -64 0
-338 -61 64 0
338 -337 61 64 -62 0
338 -337 -61 -64 -62 0
340 337 -61 0
340 -337 61 0
-340 337 61 0
-340 -337 -61 0
339 64 -62 0
339 -64 62 0
-339 64 62 0
-339 -64 -62 0
-341 340 0
-341 60 0
-341 59 -62 0
-341 -59 62 0
341 -340 59 62 -60 0
341 -340 -59 -62 -60 0
343 340 -59 0
343 -340 59 0
-343 340 59 0
-343 -340 -59 0
342 62 -60 0
342 -62 60 0
-342 62 60 0
-342 -62 -60 0
-344 343 0
-344 58 0
-344 57 -60 0
-344 -57 60 0
344 -343 57 60 -58 0
344 -343 -57 -60 -58 0
346 343 -57 0
346 -343 57 0
-346 343 57 0
-346 -343 -57 0
345 60 -58 0
345 -60 58 0
-345 60 58 0
-345 -60 -58 0
-347 346 0
-347 56 0
-347 55 -58 0
-347 -55 58 0
347 -346 55 58 -56 0
347 -346 -55 -58 -56 0
349 346 -55 0
349 -346 55 0
-349 346 55 0
-349 -346 -55 0
348 58 -56 0
348 -58 56 0
-348 58 56 0
-348 -58 -56 0
-350 349 0
-350 54 0
-350 53 -56 0
-350 -53 56 0
350 -349 53 56 -54 0
350 -349 -53 -56 -54 0
352 349 -53 0
352 -349 53 0
-352 349 53 0
-352 -349 -53 0
351 56 -54 0
351 -56 54 0
-351 56 54 0
-351 -56 -54 0
-353 352 0
-353 52 0
-353 51 -54 0
-353 -51 54 0
353 -352 51 54 -52 0
353 -352 -51 -54 -52 0
355 352 -51 0
355 -352 51 0
-355 352 51 0
-355 -352 -51 0
354 54 -52 0
354 -54 52 0
-354 54 52 0
-354 -54 -52 0
-356 355 0
-356 50 0
-356 49 -52 0
-356 -49 52 0
356 -355 49 52 -50 0
356 -355 -49 -52 -50 0
358 355 -49 0
358 -355 49 0
-358 355 49 0
-358 -355 -49 0
357 52 -50 0
357 -52 50 0
-357 52 50 0
-357 -52 -50 0
-359 358 0
-359 48 0
-359 47 -50 0
-359 -47 50 0
359 -358 47 50 -48 0
359 -358 -47 -50 -48 0
361 358 -47 0
361 -358 47 0
-361 358 47 0
-361 -358 -47 0
360 50 -48 0
360 -50 48 0
-360 50 48 0
-360 -50 -48 0
-362 361 0
-362 46 0
-362 45 -48 0
-362 -45 48 0
362 -361 45 48 -46 0
362 -361 -45 -48 -46 0
364 361 -45 0
364 -361 45 0
-364 361 45 0
-364 -361 -45 0
363 48 -46 0
363 -48 46 0
-363 48 46 0
-363 -48 -46 0
-365 364 0
-365 44 0
-365 43 -46 0
-365 -43 46 0
365 -364 43 46 -44 0
365 -364 -43 -46 -44 0
367 364 -43 0
367 -364 43 0
-367 364 43 0
-367 -364 -43 0
366 46 -44 0
366 -46 44 0
-366 46 44 0
-366 -46 -44 0
-368 367 0
-368 42 0
-368 41 -44 0
-368 -41 44 0
368 -367 41 44 -42 0
368 -367 -41 -44 -42 0
370 367 -41 0
370 -367 41 0
-370 367 41 0
-370 -367 -41 0
369 44 -42 0
369 -44 42 0
-369 44 42 0
-369 -44 -42 0
-371 370 0
-371 40 0
-371 39 -42 0
-371 -39 42 0
371 -370 39 42 -40 0
371 -370 -39 -42 -40 0
373 370 -39 0
373 -370 39 0
-373 370 39 0
-373 -370 -39 0
372 42 -40 0
372 -42 40 0
-372 42 40 0
-372 -42 -40 0
-374 373 0
-374 38 0
-374 37 -40 0
-374 -37 40 0
374 -373 37 40 -38 0
374 -373 -37 -40 -38 0
376 373 -37 0
376 -373 37 0
-376 373 37 0
-376 -373 -37 0
375 40 -38 0
375 -40 38 0
-375 40 38 0
-375 -40 -38 0
-377 376 0
-377 36 0
-377 35 -38 0
-377 -35 38 0
377 -376 35 38 -36 0
377 -376 -35 -38 -36 0
379 376 -35 0
379 -376 35 0
-379 376 35 0
-379 -376 -35 0
378 38 -36 0
378 -38 36 0
-378 38 36 0
-378 -38 -36 0
-380 379 0
-380 34 0
-380 33 -36 0
-380 -33 36 0
380 -379 33 36 -34 0
380 -379 -33 -36 -34 0
382 379 -33 0
382 -379 33 0
-382 379 33 0
-382 -379 -33 0
381 36 -34 0
381 -36 34 0
-381 36 34 0
-381 -36 -34 0
-383 382 0
-383 32 0
-383 31 -34 0
-383 -31 34 0
383 -382 31 34 -32 0
383 -382 -31 -34 -32 0
385 382 -31 0
385 -382 31 0
-385 382 31 0
-385 -382 -31 0
384 34 -32 0
384 -34 32 0
-384 34 32 0
-384 -34 -32 0
-386 385 0
-386 30 0
-386 29 -32 0
-386 -29 32 0
386 -385 29 32 -30 0
386 -385 -29 -32 -30 0
388 385 -29 0
388 -385 29 0
-388 385 29 0
-388 -385 -29 0
387 32 -30 0
387 -32 30 0
-387 32 30 0
-387 -32 -30 0
-389 388 0
-389 28 0
-389 27 -30 0
-389 -27 30 0
389 -388 27 30 -28 0
389 -388 -27 -30 -28 0
391 388 -27 0
391 -388 27 0
-391 388 27 0
-391 -388 -27 0
390 30 -28 0
390 -30 28 0
-390 30 28 0
-390 -30 -28 0
-392 391 0
-392 26 0
-392 25 -28 0
-392 -25 28 0
392 -391 25 28 -26 0
392 -391 -25 -28 -26 0
394 391 -25 0
394 -391 25 0
-394 391 25 0
-394 -391 -25 0
393 28 -26 0
393 -28 26 0
-393 28 26 0
-393 -28 -26 0
-395 394 0
-395 24 0
-395 23 -26 0
-395 -23 26 0
395 -394 23 26 -24 0
395 -394 -23 -26 -24 0
397 394 -23 0
397 -394 23 0
-397 394 23 0
-397 -394 -23 0
396 26 -24 0
396 -26 24 0
-396 26 24 0
-396 -26 -24 0
-398 397 0
-398 22 0
-398 21 -24 0
-398 -21 24 0
398 -397 21 24 -22 0
398 -397 -21 -24 -22 0
400 397 -21 0
400 -397 21 0
-400 397 21 0
-400 -397 -21 0
399 24 -22 0
399 -24 22 0
-399 24 22 0
-399 -24 -22 0
-401 400 0
-401 20 0
-401 19 -22 0
-401 -19 22 0
401 -400 19 22 -20 0
401 -400 -19 -22 -20 0
403 400 -19 0
403 -400 19 0
-403 400 19 0
-403 -400 -19 0
402 22 -20 0
402 -22 20 0
-402 22 20 0
-402 -22 -20 0
-404 403 0
-404 18 0
-404 17 -20 0
-404 -17 20 0
404 -403 17 20 -18 0
404 -403 -17 -20 -18 0
406 403 -17 0
406 -403 17 0
-406 403 17 0
-406 -403 -17 0
405 20 -18 0
405 -20 18 0
-405 20 18 0
-405 -20 -18 0
-407 406 0
-407 16 0
-407 15 -18 0
-407 -15 18 0
407 -406 15 18 -16 0
407 -406 -15 -18 -16 0
409 406 -15 0
409 -406 15 0
-409 406 15 0
-409 -406 -15 0
408 18 -16 0
408 -18 16 0
-408 18 16 0
-408 -18 -16 0
-410 409 0
-410 14 0
-410 13 -16 0
-410 -13 16 0
410 -409 13 16 -14 0
410 -409 -13 -16 -14 0
412 409 -13 0
412 -409 13 0
-412 409 13 0
-412 -409 -13 0
411 16 -14 0
411 -16 14 0
-411 16 14 0
-411 -16 -14 0
-413 412 0
-413 12 0
-413 11 -14 0
-413 -11 14 0
413 -412 11 14 -12 0
413 -412 -11 -14 -12 0
415 412 -11 0
415 -412 11 0
-415 412 11 0
-415 -412 -11 0
414 14 -12 0
414 -14 12 0
-414 14 12 0
-414 -14 -12 0
-416 415 0
-416 10 0
-416 9 -12 0
-416 -9 12 0
416 -415 9 12 -10 0
416 -415 -9 -12 -10 0
418 415 -9 0
418 -415 9 0
-418 415 9 0
-418 -415 -9 0
417 12 -10 0
417 -12 10 0
-417 12 10 0
-417 -12 -10 0
-419 418 0
-419 8 0
-419 7 -10 0
-419 -7 10 0
419 -418 7 10 -8 0
419 -418 -7 -10 -8 0
421 418 -7 0
421 -418 7 0
-421 418 7 0
-421 -418 -7 0
420 10 -8 0
420 -10 8 0
-420 10 8 0
-420 -10 -8 0
-422 421 0
-422 6 0
-422 5 -8 0
-422 -5 8 0
422 -421 5 8 -6 0
422 -421 -5 -8 -6 0
424 421 -5 0
424 -421 5 0
-424 421 5 0
-424 -421 -5 0
423 8 -6 0
423 -8 6 0
-423 8 6 0
-423 -8 -6 0
-425 424 0
-425 4 0
-425 3 -6 0
-425 -3 6 0
425 -424 3 6 -4 0
425 -424 -3 -6 -4 0
427 424 -3 0
427 -424 3 0
-427 424 3 0
-427 -424 -3 0
426 6 -4 0
426 -6 4 0
-426 6 4 0
-426 -6 -4 0
-428 427 0
-428 2 0
-428 1 -4 0
-428 -1 4 0
428 -427 1 4 -2 0
428 -427 -1 -4 -2 0
430 427 -1 0
430 -427 1 0
-430 427 1 0
-430 -427 -1 0
429 4 -2 0
429 -4 2 0
-429 4 2 0
-429 -4 -2 0
-430 0
-427 0
-429 0
-424 0
-426 0
-421 0
-423 0
-418 0
-420 0
-415 0
-417 0
-412 0
-414 0
-409 0
-411 0
-406 0
-408 0
-403 0
-405 0
-400 0
-402 0
-397 0
-399 0
-394 0
-396 0
-391 0
-393 0
-388 0
-390 0
-385 0
-387 0
-382 0
-384 0
-379 0
-381 0
-376 0
-378 0
-373 0
-375 0
-370 0
-372 0
-367 0
-369 0
-364 0
-366 0
-361 0
-363 0
-358 0
-360 0
-355 0
-357 0
-352 0
-354 0
-349 0
-351 0
-346 0
-348 0
-343 0
-345 0
-340 0
-342 0
-337 0
-339 0
-334 0
-336 0
-331 0
-333 0
-328 0
-330 0
-325 0
-327 0
-322 0
-324 0
-319 0
-321 0
-316 0
-318 0
-313 0
-315 0
-310 0
-312 0
-307 0
-309 0
-304 0
-306 0
-301 0
-303 0
-298 0
-300 0
-295 0
-297 0
-292 0
-294 0
-289 0
-291 0
-286 0
-288 0
-283 0
-285 0
-280 0
-282 0
-277 0
-279 0
-274 0
-276 0
-271 0
-273 0
-268 0
-270 0
-265 0
-267 0
-262 0
-264 0
-259 0
-261 0
-256 0
-258 0
-253 0
-255 0
-250 0
-252 0
-247 0
-249 0
-244 0
-246 0
-241 0
-243 0
-238 0
-240 0
-235 0
-237 0
-232 0
-234 0
-229 0
-231 0
-226 0
-228 0
-223 0
-225 0
-220 0
-222 0
-217 0
-219 0
-214 0
-216 0
-211 0
-213 0
-208 0
-210 0
-205 0
-207 0
-202 0
-204 0
-199 0
-201 0
-196 0
-198 0
-193 0
-195 0
-190 0
-192 0
-187 0
-189 0
-184 0
-186 0
-181 0
-183 0
-174 0
-180 0
